88 1727
2 3 4 6 7 8 11 13 15 16 17 19 20 26 28 29 31 33 35 37 40 43 44 47 49 50 51 52 53 56 58 59 60 62 65 67 68 70 71 72 73 74 76 77 78 83 84 86 87
2 3 4 5 10 11 12 14 15 18 19 21 22 23 25 26 27 28 29 33 35 36 37 42 45 49 50 55 56 60 62 66 69 70 73 77 80 81 84 87
0 1 5 8 9 11 12 13 14 20 22 23 24 26 29 33 34 35 36 38 42 44 45 47 50 51 54 57 59 60 61 62 63 65 66 67 71 72 74 77 78 81 84
0 1 6 7 8 11 12 13 14 15 16 17 20 21 23 24 25 26 27 28 30 35 37 38 40 42 43 46 47 48 52 53 57 58 60 61 62 64 67 71 72 75 79 80 83 86
0 1 5 6 11 14 20 22 23 24 26 27 28 29 31 32 35 36 37 41 44 45 47 48 51 55 56 58 59 62 64 66 67 69 70 71 72 75 77 80 81 82 83 85 86 87
1 2 4 6 12 14 16 20 23 27 32 33 35 36 40 43 47 51 52 53 57 59 60 62 63 64 66 68 71 72 77 78 80 82 83 84 86 87
0 3 4 5 8 9 11 13 14 16 24 26 27 28 29 30 37 39 42 43 47 48 51 52 56 58 59 61 63 64 67 71 72 73 74 81 84 86
0 3 8 9 11 12 13 15 16 20 21 24 26 30 31 33 34 35 37 39 40 42 44 49 51 55 58 60 61 62 66 67 69 71 72 73 77 79 80 82 83 84 86
0 2 3 6 7 16 19 21 24 25 26 33 36 39 41 42 43 44 46 47 48 50 51 53 57 59 61 67 68 69 71 72 73 75 77 85 87
2 6 7 12 14 17 22 24 25 30 31 32 34 39 40 41 42 44 45 47 48 49 50 51 53 54 55 58 64 65 68 69 75 79 81 83 85
1 16 18 19 20 21 23 24 29 32 33 34 36 37 38 39 49 50 53 56 57 59 60 62 63 69 70 72 74 76 78 85 86
0 1 2 3 4 6 7 15 16 17 24 25 26 30 31 32 38 41 42 49 58 59 61 62 65 69 70 73 74 75 79 80 81 82
1 2 3 5 7 9 13 14 15 18 21 23 24 28 29 31 33 35 38 40 42 43 47 49 51 52 53 56 57 58 59 62 63 64 65 69 71 74 78 79 82 83 84 86
0 2 3 6 7 12 14 16 19 20 22 23 29 32 33 38 40 41 44 45 51 52 55 56 58 59 60 61 64 66 67 70 71 74 75 78 83
1 2 3 4 5 6 9 12 13 17 18 20 23 25 30 31 33 34 36 37 40 41 44 45 51 54 57 58 59 63 65 66 69 70 71 74 76 77 79 82 86 87
0 1 3 7 11 12 16 17 18 19 20 22 23 24 28 29 31 33 34 35 36 40 42 43 44 45 46 52 53 54 55 56 57 59 60 68 70 71 74 76 77 78 83 86
0 3 5 6 7 8 10 11 13 15 17 21 27 29 30 33 35 41 42 49 53 54 60 61 62 63 64 65 69 71 73 77 78 79 81 82 83 84 85 86 87
0 3 9 11 14 15 16 19 20 21 22 25 26 27 29 32 33 34 35 36 38 41 43 46 47 54 55 61 64 65 66 67 69 72 77 78 79 80 81 86
1 10 12 14 15 20 21 28 29 31 32 33 35 38 40 43 45 47 48 49 54 55 57 58 59 61 62 64 67 68 75 79 81 82 83 86
0 1 8 10 13 15 17 20 23 25 27 28 30 35 37 38 42 45 46 47 50 51 53 54 55 56 62 64 65 66 67 69 72 76 79 85 86
0 2 3 4 5 7 10 13 14 15 17 18 19 21 23 26 28 31 32 33 37 39 40 43 46 47 51 52 53 55 56 57 58 63 64 66 71 72 77 78 81
1 3 7 8 10 12 16 17 18 20 26 27 29 36 37 42 47 48 50 56 57 59 60 61 63 64 65 69 70 75 76 78 83 86
1 2 4 9 13 15 17 23 28 32 33 34 36 37 38 43 48 51 53 56 58 59 62 63 64 66 68 70 72 74 78 79 80 81 82 83 86
1 2 3 4 5 10 12 13 14 15 19 20 22 25 27 28 32 35 36 37 39 41 43 49 51 52 53 54 55 59 61 62 64 65 66 68 69 70 71 72 79 83 84 87
2 3 4 6 7 8 9 10 11 12 15 25 26 29 30 32 33 34 36 38 39 42 46 47 49 51 53 54 55 59 60 61 64 65 68 69 70 72 73 75 82 83 87
1 3 8 9 11 14 17 19 23 24 26 31 32 34 35 36 40 43 49 50 52 53 54 55 58 60 61 62 63 64 65 71 72 76 78 79 80 82 84 85 87
0 1 2 3 4 6 7 8 11 17 20 21 24 25 28 29 30 31 32 34 35 36 40 41 42 44 46 47 50 52 54 55 66 67 70 79 80 81 83 84 86
1 3 4 5 6 16 17 19 21 23 29 35 43 44 47 50 51 60 65 67 70 71 74 75 76 79 81 83 85
0 1 3 4 6 12 15 18 19 20 22 23 26 34 35 37 43 44 46 50 56 61 62 63 66 73 77 79 80 83
0 1 2 4 6 10 12 13 15 16 17 18 21 24 26 27 32 33 34 36 40 41 42 43 48 51 52 54 55 57 58 59 60 61 62 63 69 72 78 84
3 6 7 9 11 14 16 19 24 26 33 35 36 38 44 45 46 48 50 55 56 58 64 66 67 68 69 70 72 73 74 75 76 77 79 81 83 84 87
0 4 7 9 11 12 14 15 18 20 25 26 33 35 36 41 45 50 51 52 54 55 56 57 62 65 69 72 75 79 80 82 84 86
4 5 9 10 11 13 17 18 20 22 23 24 25 26 29 34 40 42 43 48 49 50 54 58 59 60 61 62 63 64 65 67 69 73 74 75 76 77 79 81 83 85 87
0 1 2 5 7 8 10 12 13 14 15 16 17 18 20 22 24 29 30 31 38 40 41 45 48 51 53 56 60 62 64 65 66 71 74 75 76 78 80 82 83 84 85 86 87
2 7 9 10 14 15 17 22 24 25 26 28 29 32 36 37 39 40 42 43 44 46 47 48 52 54 56 57 61 62 63 65 66 67 73 74 75 76 77 78 81 82 83 84 85 86
0 1 2 3 4 5 7 12 15 16 17 18 19 23 25 26 27 28 30 31 39 41 44 45 48 49 61 62 63 70 71 72 73 74 75 78 80 83 87
1 2 4 5 8 10 14 15 17 21 22 23 24 25 26 29 30 31 34 38 42 45 46 47 49 51 54 60 65 68 69 70 71 72 75 78 79 81 83 84 85 86
0 1 3 4 6 7 10 14 19 20 21 22 23 28 34 42 43 44 46 47 49 51 54 58 59 60 61 62 64 67 69 70 72 73 74 75 77 82 84 87
2 3 10 11 12 13 17 18 19 22 24 30 33 36 39 45 49 50 51 52 53 54 55 56 59 60 62 64 73 80 82 83 84 85
6 7 8 9 10 20 23 24 34 35 38 42 44 45 46 47 50 53 59 62 65 66 68 71 77 78 79 80 85
0 3 5 7 9 12 13 14 15 18 20 25 26 29 32 33 34 41 43 44 45 46 48 49 52 53 55 57 58 60 62 64 68 69 70 71 72 73 74 80 81 82 84 87
4 8 9 11 13 14 16 17 23 26 29 31 33 35 40 42 44 45 52 53 55 58 60 63 65 70 71 76 78 79 80 81 82 84 86 87
1 2 3 6 7 8 9 11 12 15 16 19 21 24 26 29 32 34 36 37 39 41 44 45 47 48 49 50 52 55 56 57 58 60 65 66 72 73 74 77 78 79 80 81 82 84 85
0 3 5 6 8 12 15 17 18 20 22 23 25 27 28 29 32 34 37 40 48 49 50 51 52 54 55 57 59 60 62 67 69 74 79 81 86
0 2 4 7 8 9 13 14 15 26 27 28 30 34 35 37 39 40 41 42 47 48 51 55 57 60 61 63 64 67 68 70 71 73 74 75 76 77 80 82 83 84 85
1 2 4 9 13 14 15 18 19 30 31 33 35 36 38 39 40 41 42 46 47 48 50 51 54 56 57 58 61 62 65 67 68 70 75 78 79 83 87
3 8 15 17 19 20 24 26 28 30 34 36 37 39 40 45 47 49 50 51 54 57 60 63 64 65 67 70 73 77 78 81 82 83
0 2 3 4 5 6 8 9 12 17 18 19 20 21 24 26 27 34 36 37 39 42 44 45 46 49 50 54 55 56 57 62 67 68 75 76 77 81 83 85 87
3 4 6 8 9 18 21 22 29 30 32 33 34 35 40 42 43 44 45 50 53 54 57 58 60 69 80 81 84 85 87
0 1 7 9 10 11 12 16 18 23 24 25 32 35 36 37 38 40 42 43 46 47 50 51 52 53 54 58 63 66 67 69 72 73 79 80 81 84 85
0 1 2 8 9 10 19 21 25 26 27 28 30 31 32 38 39 42 43 45 46 47 48 49 51 52 54 55 58 59 61 62 63 64 68 71 72 74 75 76 77 78 80 83 84 85 87
0 2 4 5 6 7 8 9 12 13 14 19 20 22 23 24 27 29 31 33 36 37 38 43 44 45 46 49 50 56 60 61 63 64 67 68 70 75 76 77 78 79 84 86
0 3 5 6 12 13 15 20 23 25 26 29 31 34 38 40 41 42 43 49 50 53 56 60 62 64 70 72 74 76 79 80 82 83 85 86
0 3 5 8 9 10 12 15 16 19 20 22 23 24 25 33 38 39 40 41 48 49 52 54 57 61 63 64 65 68 70 76 77 79 80 84 85 87
2 9 14 15 16 17 18 19 23 24 25 26 29 31 32 34 36 37 38 43 45 46 47 48 49 50 53 56 58 59 61 67 70 74 78 80 83 86
1 4 7 9 13 15 17 18 19 20 23 24 25 26 29 30 31 38 40 41 42 43 44 47 50 57 58 60 65 70 71 72 73 76 79 80 83 85 86 87
0 1 4 6 10 12 13 15 19 20 21 22 28 30 31 33 34 38 42 45 47 51 52 54 57 58 60 61 63 64 69 72 73 77 78 81 83
2 3 5 8 10 12 14 15 18 20 21 29 31 34 40 42 43 44 45 46 47 48 53 55 56 60 68 76 77 79 82 86 87
0 3 4 6 7 9 11 12 13 14 18 20 22 25 29 30 32 37 40 41 42 45 48 49 50 54 55 56 60 62 63 64 69 70 72 73 74 75 77 78 82 86 87
0 2 4 5 6 8 10 11 12 13 14 15 18 21 22 23 24 29 32 37 38 39 43 50 54 62 68 70 73 74 75 77 78 81 86 87
0 1 2 3 5 7 10 13 15 16 21 24 25 27 29 32 33 36 37 38 40 41 42 43 44 46 48 51 52 55 56 57 58 61 62 63 65 67 69 76 77 78 80 83 86 87
2 3 6 7 8 11 13 16 17 18 21 23 24 25 28 29 32 34 35 37 44 45 50 51 53 54 56 60 63 65 66 68 69 73 77 82 85
0 1 2 3 4 5 7 10 11 12 16 18 19 22 23 25 28 29 31 32 33 34 35 37 38 39 40 43 45 47 50 52 58 59 60 63 64 66 68 70 71 72 74 78 80 81 82 85 87
2 5 6 10 12 14 16 20 21 22 25 28 29 32 34 35 41 44 46 49 50 51 53 56 58 60 61 62 68 69 70 72 73 75 77 78 82 83
3 4 5 6 9 12 13 16 17 18 19 20 21 22 23 24 25 30 32 33 37 38 40 44 46 50 51 52 53 56 58 62 66 68 70 71 73 74 76 77 79 80 81 83 86 87
0 2 9 11 12 14 16 17 19 21 23 24 25 27 31 32 33 34 36 39 41 42 45 46 53 55 60 61 67 70 72 73 78 79 80 82 86 87
1 2 4 5 7 13 14 17 19 20 22 23 26 28 30 33 34 39 42 49 61 62 64 68 70 71 73 74 75 81 82 83 84 85 87
0 2 3 4 6 7 8 13 17 18 19 26 27 30 32 34 37 43 44 45 46 47 49 51 54 60 65 69 71 73 76 87
0 5 8 9 15 18 22 23 24 30 36 39 40 44 45 47 50 51 53 57 59 61 62 63 64 66 69 71 72 77 81 84 87
1 4 7 8 9 10 11 12 14 16 17 19 21 23 24 29 30 31 32 36 37 40 43 48 49 56 58 60 61 63 67 68 72 74 76 77 80 82 83 84 85 87
0 1 4 10 11 13 14 15 21 22 23 24 26 27 30 35 36 37 40 41 44 45 46 51 52 53 54 55 58 59 62 63 64 65 66 71 75 81 82 84 85
0 2 3 4 5 6 7 8 12 13 14 15 16 20 23 25 27 33 35 36 39 40 41 44 50 55 62 64 66 67 68 70 72 74 76 77 80 81 84 86 87
0 2 3 4 5 6 7 8 10 17 19 20 22 23 24 25 29 30 31 35 36 37 40 42 49 50 52 55 56 58 62 63 65 68 69 71 73 74 75 77 78 80 82 84 85 86 87
0 1 6 7 8 11 16 24 28 30 32 34 35 37 38 40 42 44 46 49 55 56 58 59 61 63 64 65 66 67 72 77 79 80 81 82 85 86
0 2 6 10 11 12 13 14 15 22 27 30 32 33 34 35 37 40 42 43 44 50 52 54 58 59 62 64 66 69 71 72 79 83
3 4 8 9 11 13 18 21 24 27 30 31 32 33 34 35 36 37 44 45 47 50 51 58 59 63 66 70 72 76 77 81 82 83 84 87
0 10 14 15 19 21 25 27 30 32 33 34 41 44 47 50 51 52 53 55 57 60 64 67 69 71 75 79 84 85 86
0 1 2 4 5 7 8 14 15 16 17 20 28 30 32 34 37 39 42 44 46 47 50 51 53 56 57 58 59 60 61 63 64 68 69 71 72 73 75 79 81 85 87
0 2 5 10 12 13 15 16 17 20 21 22 25 29 33 34 35 36 39 41 42 45 46 50 51 54 56 58 59 60 62 63 65 72 80 82 83
3 7 9 11 12 14 16 17 18 19 22 23 25 26 27 28 30 31 32 36 39 41 42 43 45 49 51 52 53 55 57 64 65 73 74 76 77 81 83 86
1 3 4 5 7 11 17 22 25 26 28 31 33 35 38 39 40 41 42 44 48 49 50 52 53 54 55 60 62 64 65 69 71 72 73 78 84
1 2 4 6 9 11 16 17 18 20 22 26 27 30 32 34 36 40 41 42 43 46 47 48 49 56 59 62 64 66 68 70 71 73 75 77 79 83
4 5 7 11 12 14 16 18 22 24 25 31 33 34 37 38 40 41 42 44 46 52 57 58 61 62 63 65 66 69 70 72 73 75 78 84 85 87
0 3 4 5 7 9 12 13 15 16 18 21 22 23 24 26 27 28 30 32 33 34 35 36 38 44 45 46 47 50 52 54 55 56 60 63 64 66 69 74 75 78 79 81 86
0 1 2 5 6 7 12 16 23 25 26 29 30 31 33 34 36 37 38 40 41 42 44 48 49 50 51 53 66 68 69 70 71 72 75 76 80 82 85 86
4 8 9 10 16 19 25 27 32 33 34 36 38 39 42 44 47 48 49 50 52 53 55 61 62 66 69 70 72 73 76 77 82 84
0 3 4 5 6 7 10 12 14 15 16 17 18 19 21 22 26 31 33 34 36 41 43 51 52 54 55 57 58 59 60 64 65 71 72 73 76 79 83 84
0 1 4 5 8 14 16 23 24 25 30 32 33 35 37 40 41 45 47 48 50 53 55 57 58 59 60 62 64 65 66 67 68 69 71 72 75 77 82
